n = 32;
lu = [|-707, -150
      |-432, 217
      |-50, 1008
      |-925, -867
      |-614, 306
      |-791, 329
      |495, 896
      |-1021, -507
      |-986, 964
      |-193, 154
      |-198, 803
      |-691, 344
      |-880, -530
      |-566, -371
      |-942, 773
      |-822, 742
      |-868, 422
      |-356, -96
      |244, 892
      |-338, 992
      |-687, 201
      |-889, 164
      |-85, 157
      |-702, 325
      |-25, 617
      |161, 723
      |-739, 928
      |-987, -287
      |-357, 800
      |-769, -652
      |-483, 40
      |-827, 213|];
